0
Node Left Objective IInf Best_Integer Best_Bound ItCnt Gap
0+ 0 nan nan 883.5817 0.0000 nan 100.00%
0+ 0 nan nan 639.6325 0.0000 nan 100.00%
0 0 262.6193 7 639.6325 262.6193 42 58.94%
0 0 289.1694 9 639.6325 Cuts:8 61 54.79%
0+ 0 nan nan 462.8177 289.1694 nan 37.52%
0 0 308.4421 9 462.8177 Cuts:11 78 33.36%
0 0 321.5293 9 462.8177 Cuts:13 107 30.53%
0+ 0 nan nan 415.0905 321.5293 nan 22.54%
0 0 330.9414 8 415.0905 Cuts:12 124 20.27%
0 0 337.9254 8 415.0905 Cuts:10 146 18.59%
0 0 340.0787 7 415.0905 Cuts:5 155 18.07%
0 0 341.3757 9 415.0905 Cuts:5 166 17.76%
0 0 341.5853 9 415.0905 LiftProj:4 170 17.71%
0 0 341.8375 9 415.0905 LiftProj:3 174 17.65%
0 0 342.4261 9 415.0905 LiftProj:4 183 17.51%
0 0 342.6292 9 415.0905 LiftProj:2 189 17.46%
0 0 342.6331 9 415.0905 LiftProj:4 192 17.46%
0 0 342.6927 8 415.0905 LiftProj:3 194 17.44%
0 0 342.7129 9 415.0905 LiftProj:3 196 17.44%
0 2 342.7129 9 415.0905 342.8024 196 17.42%
CPXPARAM_MIP_Cuts_Disjunctive-LiftProj:Disjunctive 8
CPXPARAM_MIP_Cuts_Disjunctive-LiftProj:LiftProj 6
1
Node Left Objective IInf Best_Integer Best_Bound ItCnt Gap
0+ 0 nan nan 883.5817 0.0000 nan 100.00%
0 0 integral 0 262.6193 262.6193 40 0.00%
CPXPARAM_MIP_Cuts_Disjunctive-LiftProj:Disjunctive 0
CPXPARAM_MIP_Cuts_Disjunctive-LiftProj:LiftProj 0
2
Node Left Objective IInf Best_Integer Best_Bound ItCnt Gap
0+ 0 nan nan 883.5817 0.0000 nan 100.00%
0+ 0 nan nan 639.6325 0.0000 nan 100.00%
0 0 269.4766 5 639.6325 269.4766 42 57.87%
0 0 279.5547 7 639.6325 Cuts:7 54 56.29%
0+ 0 nan nan 583.4780 279.5547 nan 52.09%
0 0 307.2092 7 583.4780 Cuts:11 67 47.35%
0+ 0 nan nan 415.0905 307.2092 nan 25.99%
0 0 324.3847 8 415.0905 Cuts:16 90 21.85%
0 0 338.1541 8 415.0905 Cuts:13 110 18.53%
0 0 341.8133 8 415.0905 Cuts:10 130 17.65%
0 0 345.6008 8 415.0905 Cuts:6 146 16.74%
0 0 346.7623 8 415.0905 LiftProj:7 159 16.46%
0 0 347.0789 8 415.0905 LiftProj:5 170 16.38%
0 0 347.3290 8 415.0905 LiftProj:8 180 16.32%
0 0 348.4080 9 415.0905 LiftProj:8 201 16.06%
0 0 350.0288 9 415.0905 LiftProj:8 209 15.67%
0 0 351.9291 9 415.0905 LiftProj:7 225 15.22%
0 0 353.6975 9 415.0905 LiftProj:6 242 14.79%
0 0 356.2508 9 415.0905 Cuts:9 256 14.18%
0 0 357.4429 9 415.0905 LiftProj:4 264 13.89%
0 0 357.8041 9 415.0905 LiftProj:7 275 13.80%
0 0 359.3893 9 415.0905 LiftProj:4 284 13.42%
0 0 360.8012 9 415.0905 LiftProj:4 293 13.08%
0 0 361.3627 9 415.0905 LiftProj:3 298 12.94%
0 0 362.2689 8 415.0905 Cuts:6 305 12.73%
0 0 362.7238 9 415.0905 LiftProj:6 315 12.62%
0 0 363.2073 9 415.0905 LiftProj:8 324 12.50%
0 0 364.0901 9 415.0905 Cuts:5 334 12.29%
0 0 364.9090 9 415.0905 LiftProj:5 337 12.09%
0 0 365.2754 9 415.0905 Cuts:10 341 12.00%
0 0 365.7728 9 415.0905 Cuts:4 344 11.88%
0 0 365.9651 9 415.0905 LiftProj:4 347 11.83%
0 0 367.4195 9 415.0905 LiftProj:4 358 11.48%
0 0 367.7754 9 415.0905 LiftProj:5 369 11.40%
0 0 367.9282 9 415.0905 LiftProj:4 372 11.36%
0 0 368.2687 8 415.0905 LiftProj:3 377 11.28%
0 0 368.5692 9 415.0905 Cuts:10 388 11.21%
0 0 368.8392 9 415.0905 LiftProj:5 393 11.14%
0 0 369.4697 9 415.0905 LiftProj:5 401 10.99%
0 0 369.6786 9 415.0905 LiftProj:7 404 10.94%
0 0 370.0262 8 415.0905 LiftProj:4 409 10.86%
0 0 370.4145 9 415.0905 LiftProj:5 417 10.76%
0 0 370.6610 9 415.0905 LiftProj:5 425 10.70%
0 0 370.8213 9 415.0905 LiftProj:5 429 10.66%
0 0 371.0333 9 415.0905 LiftProj:5 433 10.61%
0 0 371.1271 8 415.0905 LiftProj:4 438 10.59%
0 0 371.1327 8 415.0905 LiftProj:4 440 10.59%
0 2 371.9930 7 415.0905 372.3972 440 10.29%
CPXPARAM_MIP_Cuts_Disjunctive-LiftProj:Disjunctive 25
CPXPARAM_MIP_Cuts_Disjunctive-LiftProj:LiftProj 1
3
Node Left Objective IInf Best_Integer Best_Bound ItCnt Gap
0+ 0 nan nan 883.5817 0.0000 nan 100.00%
0 0 314.8220 1 883.5817 314.8220 38 64.37%
0+ 0 nan nan 315.1239 314.8220 nan 0.10%
0 0 integral 0 314.8876 Disjcuts:1 40 0.00%
0 0 cutoff 314.8876 314.8876 40 0.00% 0
CPXPARAM_MIP_Cuts_Disjunctive-LiftProj:Disjunctive 0
CPXPARAM_MIP_Cuts_Disjunctive-LiftProj:LiftProj 1
4
Node Left Objective IInf Best_Integer Best_Bound ItCnt Gap
0+ 0 nan nan 693.8542 0.0000 nan 100.00%
0+ 0 nan nan 634.5912 0.0000 nan 100.00%
0 0 405.5114 7 634.5912 405.5114 50 36.10%
0 0 410.2300 9 634.5912 Cuts:7 63 35.36%
0+ 0 nan nan 455.9855 410.2300 nan 10.03%
0 0 415.9441 9 455.9855 Cuts:11 74 8.78%
0 0 420.7411 8 455.9855 Cuts:10 86 7.73%
0 0 423.4574 9 455.9855 Cuts:10 98 7.13%
0 0 425.5466 9 455.9855 Cuts:9 111 6.68%
0 0 425.6776 9 455.9855 Cuts:4 115 6.65%
0 0 425.9040 8 455.9855 LiftProj:2 120 6.60%
0 0 425.9116 8 455.9855 LiftProj:3 121 6.60%
0 0 426.0593 8 455.9855 LiftProj:3 123 6.56%
0 0 426.0888 8 455.9855 LiftProj:3 127 6.56%
0+ 0 nan nan 441.1644 426.0888 nan 3.42%
0 2 426.5692 7 441.1644 427.2094 127 3.16%
CPXPARAM_MIP_Cuts_Disjunctive-LiftProj:Disjunctive 4
CPXPARAM_MIP_Cuts_Disjunctive-LiftProj:LiftProj 4
5
Node Left Objective IInf Best_Integer Best_Bound ItCnt Gap
0+ 0 nan nan 693.8542 0.0000 nan 100.00%
0 0 405.5114 1 693.8542 405.5114 49 41.56%
0+ 0 nan nan 407.3057 405.5114 nan 0.44%
0 0 integral 0 405.9187 405.9187 52 0.00%
CPXPARAM_MIP_Cuts_Disjunctive-LiftProj:Disjunctive 0
CPXPARAM_MIP_Cuts_Disjunctive-LiftProj:LiftProj 0
6
Node Left Objective IInf Best_Integer Best_Bound ItCnt Gap
0+ 0 nan nan 693.8542 0.0000 nan 100.00%
0+ 0 nan nan 652.0517 0.0000 nan 100.00%
0+ 0 nan nan 648.3061 0.0000 nan 100.00%
0 0 405.5114 7 648.3061 405.5114 44 37.45%
0 0 412.6168 9 648.3061 Cuts:8 54 36.35%
0+ 0 nan nan 449.4074 412.6168 nan 8.19%
0 0 416.0763 9 449.4074 Cuts:13 62 7.42%
0 0 420.4557 9 449.4074 Cuts:11 79 6.44%
0 0 422.2530 8 449.4074 Cuts:11 95 6.04%
0 0 423.5231 9 449.4074 Cuts:12 104 5.76%
0 0 424.1158 9 449.4074 LiftProj:5 114 5.63%
0 0 424.7368 9 449.4074 LiftProj:4 121 5.49%
0 0 425.9593 8 449.4074 LiftProj:4 129 5.22%
0 0 426.6915 8 449.4074 Cuts:6 135 5.05%
0 0 427.9169 8 449.4074 LiftProj:5 148 4.78%
0 0 428.1059 8 449.4074 LiftProj:4 151 4.74%
0 0 428.5252 8 449.4074 LiftProj:4 157 4.65%
0+ 0 nan nan 441.1644 428.5252 nan 2.86%
0 0 428.6144 8 441.1644 LiftProj:3 161 2.84%
0 0 428.6520 8 441.1644 LiftProj:2 162 2.84%
0 0 429.3104 8 441.1644 LiftProj:3 172 2.69%
0 0 429.8094 8 441.1644 LiftProj:3 176 2.57%
0 0 429.9765 8 441.1644 LiftProj:5 180 2.54%
0 0 430.0023 8 441.1644 LiftProj:1 183 2.53%
0 2 430.9682 6 441.1644 430.9972 183 2.30%
CPXPARAM_MIP_Cuts_Disjunctive-LiftProj:Disjunctive 11
CPXPARAM_MIP_Cuts_Disjunctive-LiftProj:LiftProj 2
7
Node Left Objective IInf Best_Integer Best_Bound ItCnt Gap
0+ 0 nan nan 693.8542 0.0000 nan 100.00%
0 0 integral 0 425.0746 425.0746 34 0.00%
CPXPARAM_MIP_Cuts_Disjunctive-LiftProj:Disjunctive 0
CPXPARAM_MIP_Cuts_Disjunctive-LiftProj:LiftProj 0
8
Node Left Objective IInf Best_Integer Best_Bound ItCnt Gap
0+ 0 nan nan 845.6683 0.0000 nan 100.00%
0+ 0 nan nan 648.8417 0.0000 nan 100.00%
0 0 484.8467 7 648.8417 484.8467 54 25.28%
0 0 509.4989 8 648.8417 Cuts:8 66 21.48%
0 0 517.7960 9 648.8417 Cuts:11 73 20.20%
0 0 527.8600 9 648.8417 Cuts:11 83 18.65%
0+ 0 nan nan 607.3004 527.8600 nan 13.08%
0 0 534.5969 9 607.3004 Cuts:10 99 11.97%
0 0 536.2026 8 607.3004 Cuts:9 112 11.71%
0 0 536.4215 9 607.3004 LiftProj:4 118 11.67%
0 0 537.2799 9 607.3004 LiftProj:5 128 11.53%
0 0 537.4582 9 607.3004 LiftProj:3 132 11.50%
0 0 537.6131 9 607.3004 Cuts:5 137 11.47%
0 0 537.7024 9 607.3004 LiftProj:5 145 11.46%
0 0 538.0399 9 607.3004 LiftProj:4 150 11.40%
0 0 538.1975 9 607.3004 LiftProj:6 155 11.38%
0 0 538.5502 9 607.3004 LiftProj:6 164 11.32%
0 0 540.0314 8 607.3004 LiftProj:5 172 11.08%
0 0 540.3021 7 607.3004 Cuts:8 179 11.03%
0 0 540.8282 8 607.3004 LiftProj:5 186 10.95%
0 0 541.0224 9 607.3004 LiftProj:5 193 10.91%
0 0 541.1357 9 607.3004 LiftProj:5 201 10.89%
0 0 541.1856 9 607.3004 LiftProj:5 205 10.89%
0 0 541.2613 9 607.3004 LiftProj:4 209 10.87%
0 2 541.2613 9 607.3004 541.2708 209 10.87%
CPXPARAM_MIP_Cuts_Disjunctive-LiftProj:Disjunctive 17
CPXPARAM_MIP_Cuts_Disjunctive-LiftProj:LiftProj 2
9
Node Left Objective IInf Best_Integer Best_Bound ItCnt Gap
0+ 0 nan nan 845.6683 0.0000 nan 100.00%
0 0 integral 0 484.8467 484.8467 43 0.00%
CPXPARAM_MIP_Cuts_Disjunctive-LiftProj:Disjunctive 0
CPXPARAM_MIP_Cuts_Disjunctive-LiftProj:LiftProj 0
10
Node Left Objective IInf Best_Integer Best_Bound ItCnt Gap
0+ 0 nan nan 845.6683 0.0000 nan 100.00%
0 0 498.6071 5 845.6683 498.6071 38 41.04%
0+ 0 nan nan 697.1349 498.6071 nan 28.48%
0 0 504.2498 8 697.1349 Disjcuts:5 48 27.67%
0+ 0 nan nan 648.8417 504.2498 nan 22.28%
0 0 523.6596 8 648.8417 Cuts:12 64 19.29%
0+ 0 nan nan 626.4130 523.6596 nan 16.40%
0 0 533.4830 8 626.4130 Cuts:11 74 14.84%
0 0 534.4336 8 626.4130 Cuts:10 85 14.68%
0 0 536.9113 8 626.4130 Cuts:8 96 14.29%
0 0 539.9743 8 626.4130 Cuts:5 108 13.80%
0 0 540.3804 8 626.4130 Cuts:4 114 13.73%
0 0 541.1393 8 626.4130 Cuts:4 122 13.61%
0 0 541.6227 8 626.4130 LiftProj:4 129 13.54%
0 0 544.1547 8 626.4130 Cuts:9 140 13.13%
0 0 545.3846 8 626.4130 Cuts:7 150 12.94%
0 0 550.9325 8 626.4130 LiftProj:5 163 12.05%
0+ 0 nan nan 607.3004 550.9325 nan 9.28%
0 0 552.3531 8 607.3004 LiftProj:7 175 9.05%
0 0 553.4225 7 607.3004 Cuts:7 185 8.87%
0 0 554.0440 8 607.3004 Cuts:6 190 8.77%
0 0 555.1199 9 607.3004 LiftProj:5 200 8.59%
0 0 556.0801 8 607.3004 LiftProj:6 209 8.43%
0 0 556.8367 8 607.3004 LiftProj:6 216 8.31%
0 0 557.3449 9 607.3004 LiftProj:7 224 8.23%
0 0 558.1552 8 607.3004 LiftProj:5 231 8.09%
0 0 558.8901 8 607.3004 LiftProj:5 241 7.97%
0 0 559.0231 8 607.3004 LiftProj:7 244 7.95%
0 0 559.2136 8 607.3004 LiftProj:5 253 7.92%
0 0 559.3080 9 607.3004 LiftProj:4 256 7.90%
0 0 559.4287 9 607.3004 LiftProj:7 264 7.88%
0 2 561.4621 7 607.3004 561.5983 264 7.53%
CPXPARAM_MIP_Cuts_Disjunctive-LiftProj:Disjunctive 24
CPXPARAM_MIP_Cuts_Disjunctive-LiftProj:LiftProj 0
11
Node Left Objective IInf Best_Integer Best_Bound ItCnt Gap
0+ 0 nan nan 845.6683 0.0000 nan 100.00%
0 0 integral 0 561.1585 561.1585 45 0.00%
CPXPARAM_MIP_Cuts_Disjunctive-LiftProj:Disjunctive 0
CPXPARAM_MIP_Cuts_Disjunctive-LiftProj:LiftProj 0
12
Node Left Objective IInf Best_Integer Best_Bound ItCnt Gap
0+ 0 nan nan 656.4681 0.0000 nan 100.00%
0+ 0 nan nan 534.4657 0.0000 nan 100.00%
0 0 386.2283 7 534.4657 386.2283 47 27.74%
0 0 391.1700 9 534.4657 Cuts:7 64 26.81%
0+ 0 nan nan 521.2586 391.1700 nan 24.96%
0 0 400.3996 9 521.2586 Cuts:12 73 23.19%
0+ 0 nan nan 474.3633 400.3996 nan 15.59%
0 0 411.3872 8 474.3633 Cuts:10 92 13.28%
0 0 414.4044 8 474.3633 Cuts:13 109 12.64%
0 0 415.7800 8 474.3633 Cuts:10 121 12.35%
0 0 416.0648 9 474.3633 Cuts:6 130 12.29%
0 0 416.5673 9 474.3633 Cuts:6 141 12.18%
0 0 416.6769 9 474.3633 LiftProj:5 153 12.16%
0 0 416.9978 9 474.3633 Cuts:8 162 12.09%
0 0 417.2341 9 474.3633 Cuts:7 169 12.04%
0 0 417.7434 9 474.3633 Cuts:7 178 11.94%
0 0 418.4908 9 474.3633 Cuts:10 190 11.78%
0 0 418.6692 9 474.3633 LiftProj:6 193 11.74%
0 0 420.4033 9 474.3633 LiftProj:5 206 11.38%
0 0 421.4418 9 474.3633 LiftProj:6 218 11.16%
0 0 421.7773 9 474.3633 LiftProj:5 227 11.09%
0 0 422.0403 9 474.3633 LiftProj:6 233 11.03%
0 0 423.0649 9 474.3633 LiftProj:5 243 10.81%
0 0 423.3568 9 474.3633 LiftProj:5 246 10.75%
0 0 423.4871 9 474.3633 LiftProj:5 250 10.73%
0 0 424.2074 8 474.3633 LiftProj:5 261 10.57%
0 0 424.7422 9 474.3633 LiftProj:5 266 10.46%
0 0 425.3471 9 474.3633 LiftProj:4 275 10.33%
0 0 425.3839 9 474.3633 LiftProj:2 278 10.33%
0 0 425.4691 9 474.3633 LiftProj:4 282 10.31%
0 2 425.4691 9 474.3633 425.4826 282 10.30%
CPXPARAM_MIP_Cuts_Disjunctive-LiftProj:Disjunctive 19
CPXPARAM_MIP_Cuts_Disjunctive-LiftProj:LiftProj 0
13
Node Left Objective IInf Best_Integer Best_Bound ItCnt Gap
0+ 0 nan nan 656.4681 0.0000 nan 100.00%
0 0 integral 0 389.1110 389.1110 45 0.00%
CPXPARAM_MIP_Cuts_Disjunctive-LiftProj:Disjunctive 0
CPXPARAM_MIP_Cuts_Disjunctive-LiftProj:LiftProj 0
14
Node Left Objective IInf Best_Integer Best_Bound ItCnt Gap
0+ 0 nan nan 656.4681 0.0000 nan 100.00%
0+ 0 nan nan 534.4657 0.0000 nan 100.00%
0 0 386.2283 7 534.4657 386.2283 36 27.74%
0 0 389.5987 9 534.4657 Disjcuts:6 48 27.11%
0+ 0 nan nan 526.4159 389.5987 nan 25.99%
0 0 399.5175 9 526.4159 Cuts:12 62 24.11%
0+ 0 nan nan 488.8119 399.5175 nan 18.27%
0 0 406.6392 9 488.8119 Cuts:13 76 16.81%
0 0 410.6380 9 488.8119 Cuts:13 92 15.99%
0+ 0 nan nan 465.9177 410.6380 nan 11.86%
0 0 413.6267 9 465.9177 Cuts:17 110 11.22%
0 0 415.9340 9 465.9177 LiftProj:14 122 10.73%
0 0 419.8561 9 465.9177 Cuts:9 134 9.89%
0 0 421.6844 9 465.9177 LiftProj:6 144 9.49%
0 0 423.8153 8 465.9177 LiftProj:8 154 9.04%
0 0 425.1739 9 465.9177 LiftProj:10 164 8.74%
0 0 426.6806 9 465.9177 LiftProj:6 172 8.42%
0 0 428.4591 9 465.9177 LiftProj:6 179 8.04%
0 0 429.8808 8 465.9177 LiftProj:7 187 7.73%
0 0 430.4826 9 465.9177 LiftProj:8 194 7.61%
0 0 430.9632 9 465.9177 LiftProj:6 198 7.50%
0 0 431.5130 9 465.9177 LiftProj:8 203 7.38%
0 0 432.3251 9 465.9177 LiftProj:6 206 7.21%
0 0 433.9351 9 465.9177 LiftProj:6 215 6.86%
0 0 434.2627 9 465.9177 LiftProj:6 220 6.79%
0 0 434.3605 9 465.9177 LiftProj:5 222 6.77%
0 0 435.6918 9 465.9177 LiftProj:6 231 6.49%
0 0 436.1269 9 465.9177 LiftProj:6 234 6.39%
0 0 437.2795 9 465.9177 LiftProj:4 240 6.15%
0 0 437.4086 9 465.9177 LiftProj:6 245 6.12%
0 0 437.7101 9 465.9177 LiftProj:5 251 6.05%
0 0 437.9574 9 465.9177 LiftProj:4 256 6.00%
0 0 437.9951 9 465.9177 LiftProj:6 259 5.99%
0 0 438.0723 9 465.9177 LiftProj:4 262 5.98%
0 2 438.0723 9 465.9177 438.1293 262 5.96%
CPXPARAM_MIP_Cuts_Disjunctive-LiftProj:Disjunctive 18
CPXPARAM_MIP_Cuts_Disjunctive-LiftProj:LiftProj 0
15
Node Left Objective IInf Best_Integer Best_Bound ItCnt Gap
0+ 0 nan nan 656.4681 0.0000 nan 100.00%
0 0 integral 0 410.1756 410.1756 35 0.00%
CPXPARAM_MIP_Cuts_Disjunctive-LiftProj:Disjunctive 0
CPXPARAM_MIP_Cuts_Disjunctive-LiftProj:LiftProj 0
16
Node Left Objective IInf Best_Integer Best_Bound ItCnt Gap
0+ 0 nan nan 673.4267 0.0000 nan 100.00%
0+ 0 nan nan 482.5302 0.0000 nan 100.00%
0 0 417.5617 7 482.5302 417.5617 54 13.46%
0 0 417.5617 7 482.5302 LiftProj:2 58 13.46%
0+ 0 nan nan 479.1117 417.5617 nan 12.85%
0 0 420.8337 9 479.1117 Cuts:7 68 12.16%
0+ 0 nan nan 475.1344 420.8337 nan 11.43%
0 0 423.9849 9 475.1344 Cuts:12 79 10.77%
0+ 0 nan nan 465.5226 423.9849 nan 8.92%
0 0 429.0289 8 465.5226 Cuts:11 92 7.84%
0 0 432.7722 9 465.5226 Cuts:10 110 7.04%
0 0 433.2842 8 465.5226 LiftProj:4 118 6.93%
0 0 433.6659 8 465.5226 LiftProj:6 124 6.84%
0 0 433.8645 9 465.5226 Cuts:9 131 6.80%
0 0 434.1402 9 465.5226 Cuts:5 134 6.74%
0 0 436.0737 9 465.5226 LiftProj:5 143 6.33%
0 0 436.4359 8 465.5226 Cuts:10 150 6.25%
0 0 436.8548 8 465.5226 Cuts:11 162 6.16%
0 0 437.0750 9 465.5226 LiftProj:5 171 6.11%
0 0 437.2239 9 465.5226 LiftProj:5 175 6.08%
0 0 438.1621 9 465.5226 LiftProj:8 182 5.88%
0 0 438.3368 9 465.5226 LiftProj:6 185 5.84%
0 0 438.8906 9 465.5226 LiftProj:6 190 5.72%
0 0 441.0327 9 465.5226 LiftProj:7 198 5.26%
0 0 441.1305 9 465.5226 LiftProj:7 207 5.24%
0 0 441.5447 9 465.5226 LiftProj:7 215 5.15%
0 0 441.5842 9 465.5226 LiftProj:6 219 5.14%
0 2 441.9305 8 465.5226 442.0062 219 5.05%
CPXPARAM_MIP_Cuts_Disjunctive-LiftProj:Disjunctive 18
CPXPARAM_MIP_Cuts_Disjunctive-LiftProj:LiftProj 0
17
Node Left Objective IInf Best_Integer Best_Bound ItCnt Gap
0+ 0 nan nan 673.4267 0.0000 nan 100.00%
0 0 integral 0 425.9937 425.9937 45 0.00%
CPXPARAM_MIP_Cuts_Disjunctive-LiftProj:Disjunctive 0
CPXPARAM_MIP_Cuts_Disjunctive-LiftProj:LiftProj 0
18
Node Left Objective IInf Best_Integer Best_Bound ItCnt Gap
0+ 0 nan nan 673.4267 0.0000 nan 100.00%
0 0 423.0032 5 673.4267 423.0032 39 37.19%
0+ 0 nan nan 591.6412 423.0032 nan 28.50%
0 0 424.6608 7 591.6412 Cuts:5 50 28.22%
0+ 0 nan nan 465.5226 424.6608 nan 8.78%
0 0 428.6685 8 465.5226 Cuts:11 64 7.92%
0 0 428.9642 8 465.5226 Cuts:10 73 7.85%
0 0 432.0871 8 465.5226 Cuts:13 91 7.18%
0 0 432.2264 8 465.5226 Cuts:7 99 7.15%
0 0 433.3857 7 465.5226 Cuts:7 105 6.90%
0 0 433.8433 8 465.5226 Cuts:11 115 6.81%
0 0 434.1281 8 465.5226 LiftProj:5 122 6.74%
0 0 435.1224 8 465.5226 Cuts:6 131 6.53%
0 0 436.5957 8 465.5226 Cuts:6 139 6.21%
0 0 437.1169 8 465.5226 Cuts:5 150 6.10%
0 0 437.4693 8 465.5226 Cuts:5 155 6.03%
0 0 437.9537 8 465.5226 LiftProj:5 163 5.92%
0 0 439.3578 8 465.5226 LiftProj:4 168 5.62%
0 0 440.4080 8 465.5226 Cuts:8 177 5.39%
0 0 440.9608 8 465.5226 LiftProj:6 184 5.28%
0 0 441.4099 8 465.5226 LiftProj:7 192 5.18%
0 0 441.6514 9 465.5226 LiftProj:6 197 5.13%
0 0 441.6635 9 465.5226 LiftProj:5 200 5.13%
0 0 441.6992 9 465.5226 LiftProj:9 203 5.12%
0 2 443.3128 6 465.5226 443.5716 203 4.72%
CPXPARAM_MIP_Cuts_Disjunctive-LiftProj:Disjunctive 14
CPXPARAM_MIP_Cuts_Disjunctive-LiftProj:LiftProj 1
19
Node Left Objective IInf Best_Integer Best_Bound ItCnt Gap
0+ 0 nan nan 673.4267 0.0000 nan 100.00%
0+ 0 nan nan 448.7922 0.0000 nan 100.00%
0 0 integral 0 446.2379 446.2379 37 0.00%
CPXPARAM_MIP_Cuts_Disjunctive-LiftProj:Disjunctive 0
CPXPARAM_MIP_Cuts_Disjunctive-LiftProj:LiftProj 0
20
Node Left Objective IInf Best_Integer Best_Bound ItCnt Gap
0+ 0 nan nan 525.1284 0.0000 nan 100.00%
0+ 0 nan nan 499.7053 0.0000 nan 100.00%
0 0 283.8374 7 499.7053 283.8374 45 43.20%
0+ 0 nan nan 335.4671 283.8374 nan 15.39%
0 0 286.5947 9 335.4671 Cuts:6 57 14.57%
0 0 293.0329 9 335.4671 Cuts:10 66 12.65%
0+ 0 nan nan 315.2212 293.0329 nan 7.04%
0 0 299.4561 9 315.2212 Cuts:10 82 5.00%
0 0 300.7586 9 315.2212 Cuts:9 91 4.59%
0 0 303.1519 9 315.2212 Cuts:8 102 3.83%
0 0 303.2652 9 315.2212 LiftProj:4 108 3.79%
0 0 303.5478 6 315.2212 LiftProj:7 115 3.70%
0 0 303.8710 9 315.2212 LiftProj:4 122 3.60%
0 0 304.8067 8 315.2212 LiftProj:4 132 3.30%
0 0 305.0276 8 315.2212 LiftProj:4 138 3.23%
0 0 305.1984 9 315.2212 LiftProj:3 141 3.18%
0 0 305.4856 9 315.2212 LiftProj:3 145 3.09%
0 0 305.6472 9 315.2212 Cuts:5 151 3.04%
0 0 305.8391 9 315.2212 LiftProj:6 160 2.98%
0 0 306.4704 8 315.2212 LiftProj:3 172 2.78%
0 0 306.6298 8 315.2212 LiftProj:3 179 2.73%
0 0 307.7557 8 315.2212 Cuts:5 191 2.37%
0 0 307.8491 8 315.2212 LiftProj:2 193 2.34%
0 0 307.9662 8 315.2212 LiftProj:3 197 2.30%
0 0 308.0097 8 315.2212 LiftProj:3 200 2.29%
0 0 308.3273 7 315.2212 Cuts:4 207 2.19%
0 0 308.9306 7 315.2212 Cuts:4 219 2.00%
0 0 309.4195 7 315.2212 LiftProj:7 226 1.84%
0+ 0 nan nan 315.2212 309.4195 nan 1.84%
0 0 309.6841 6 315.2212 Cuts:8 230 1.76%
0 0 309.9415 7 315.2212 LiftProj:3 235 1.67%
0 0 310.3744 7 315.2212 Cuts:6 240 1.54%
0 0 310.8580 6 315.2212 LiftProj:2 250 1.38%
0 0 311.3443 6 315.2212 LiftProj:3 255 1.23%
0 0 311.4452 6 315.2212 LiftProj:3 259 1.20%
0 0 313.8216 4 315.2212 LiftProj:2 270 0.44%
0 0 314.8943 4 315.2212 Cuts:7 276 0.10%
0 0 cutoff 315.2212 278 0.00% 0 0
CPXPARAM_MIP_Cuts_Disjunctive-LiftProj:Disjunctive 7
CPXPARAM_MIP_Cuts_Disjunctive-LiftProj:LiftProj 0
21
Node Left Objective IInf Best_Integer Best_Bound ItCnt Gap
0+ 0 nan nan 525.1284 0.0000 nan 100.00%
0 0 integral 0 283.8374 283.8374 44 0.00%
CPXPARAM_MIP_Cuts_Disjunctive-LiftProj:Disjunctive 0
CPXPARAM_MIP_Cuts_Disjunctive-LiftProj:LiftProj 0
22
Node Left Objective IInf Best_Integer Best_Bound ItCnt Gap
0+ 0 nan nan 525.1284 0.0000 nan 100.00%
0+ 0 nan nan 502.7786 0.0000 nan 100.00%
0 0 286.9244 7 502.7786 286.9244 33 42.93%
0+ 0 nan nan 406.3795 286.9244 nan 29.39%
0 0 295.1862 8 406.3795 Cuts:9 48 27.36%
0+ 0 nan nan 392.9654 295.1862 nan 24.88%
0 0 302.3947 9 392.9654 Cuts:8 56 23.05%
0+ 0 nan nan 331.4363 302.3947 nan 8.76%
0 0 303.8517 7 331.4363 Cuts:5 66 8.32%
0 0 305.0655 9 331.4363 Cuts:7 76 7.96%
0 0 308.6568 8 331.4363 Cuts:6 92 6.87%
0+ 0 nan nan 315.4732 308.6568 nan 2.16%
0 0 308.8679 6 315.4732 LiftProj:1 96 2.09%
0 0 308.9335 7 315.4732 LiftProj:2 98 2.07%
0 0 309.1822 7 315.4732 LiftProj:1 100 1.99%
0 0 312.3381 7 315.4732 LiftProj:3 108 0.99%
0 0 cutoff 315.4732 124 0.00% 0 0
CPXPARAM_MIP_Cuts_Disjunctive-LiftProj:Disjunctive 6
CPXPARAM_MIP_Cuts_Disjunctive-LiftProj:LiftProj 0
23
Node Left Objective IInf Best_Integer Best_Bound ItCnt Gap
0+ 0 nan nan 525.1284 0.0000 nan 100.00%
0 0 integral 0 293.4740 293.4740 26 0.00%
CPXPARAM_MIP_Cuts_Disjunctive-LiftProj:Disjunctive 0
CPXPARAM_MIP_Cuts_Disjunctive-LiftProj:LiftProj 0
24
Node Left Objective IInf Best_Integer Best_Bound ItCnt Gap
0+ 0 nan nan 549.2671 0.0000 nan 100.00%
0+ 0 nan nan 473.7492 0.0000 nan 100.00%
0 0 363.2658 7 473.7492 363.2658 42 23.32%
0+ 0 nan nan 458.3613 363.2658 nan 20.75%
0 0 366.2512 9 458.3613 Cuts:8 58 20.10%
0+ 0 nan nan 444.0143 366.2512 nan 17.51%
0 0 369.7366 9 444.0143 Cuts:13 75 16.73%
0+ 0 nan nan 399.6484 369.7366 nan 7.48%
0 0 372.4297 9 399.6484 Cuts:10 88 6.81%
0 0 374.4975 9 399.6484 Cuts:13 102 6.29%
0 0 378.6582 8 399.6484 Cuts:9 118 5.25%
0 0 378.7449 9 399.6484 LiftProj:3 121 5.23%
0 0 379.0099 9 399.6484 LiftProj:4 124 5.16%
0 0 379.0603 9 399.6484 LiftProj:5 127 5.15%
0 0 379.1560 8 399.6484 Cuts:6 131 5.13%
0 0 379.1730 9 399.6484 LiftProj:4 136 5.12%
0 0 379.2103 9 399.6484 LiftProj:5 140 5.11%
0+ 0 nan nan 396.1684 379.2103 nan 4.28%
0 2 379.6612 8 396.1684 379.7942 140 4.13%
CPXPARAM_MIP_Cuts_Disjunctive-LiftProj:Disjunctive 8
CPXPARAM_MIP_Cuts_Disjunctive-LiftProj:LiftProj 5
25
Node Left Objective IInf Best_Integer Best_Bound ItCnt Gap
0+ 0 nan nan 549.2671 0.0000 nan 100.00%
0 0 integral 0 372.4575 372.4575 43 0.00%
CPXPARAM_MIP_Cuts_Disjunctive-LiftProj:Disjunctive 0
CPXPARAM_MIP_Cuts_Disjunctive-LiftProj:LiftProj 0
26
Node Left Objective IInf Best_Integer Best_Bound ItCnt Gap
0+ 0 nan nan 549.2671 0.0000 nan 100.00%
0+ 0 nan nan 476.4585 0.0000 nan 100.00%
0 0 372.1627 6 476.4585 372.1627 30 21.89%
0 0 377.6661 6 476.4585 Cuts:6 42 20.73%
0+ 0 nan nan 404.2019 377.6661 nan 6.56%
0 0 381.6067 6 404.2019 Cuts:10 52 5.59%
0+ 0 nan nan 399.6484 381.6067 nan 4.51%
0 0 383.4396 7 399.6484 Cuts:9 63 4.06%
0 0 384.7087 6 399.6484 Cuts:10 75 3.74%
0 0 387.1324 6 399.6484 Cuts:10 91 3.13%
0 0 387.2999 6 399.6484 LiftProj:4 96 3.09%
0 0 387.6245 6 399.6484 LiftProj:4 102 3.01%
0 0 387.7277 5 399.6484 LiftProj:4 105 2.98%
0 0 388.1337 6 399.6484 LiftProj:4 108 2.88%
0 0 388.3799 6 399.6484 LiftProj:4 111 2.82%
0 0 389.2642 6 399.6484 LiftProj:3 116 2.60%
0 0 389.2791 6 399.6484 LiftProj:6 118 2.59%
0 0 389.5576 6 399.6484 LiftProj:5 122 2.52%
0 0 389.8108 5 399.6484 LiftProj:4 126 2.46%
0 0 389.8640 6 399.6484 LiftProj:3 127 2.45%
0 2 389.8640 6 399.6484 390.7858 127 2.22%
CPXPARAM_MIP_Cuts_Disjunctive-LiftProj:Disjunctive 12
CPXPARAM_MIP_Cuts_Disjunctive-LiftProj:LiftProj 1
27
Node Left Objective IInf Best_Integer Best_Bound ItCnt Gap
0+ 0 nan nan 549.2671 0.0000 nan 100.00%
0 0 integral 0 385.0255 385.0255 33 0.00%
CPXPARAM_MIP_Cuts_Disjunctive-LiftProj:Disjunctive 0
CPXPARAM_MIP_Cuts_Disjunctive-LiftProj:LiftProj 0
28
Node Left Objective IInf Best_Integer Best_Bound ItCnt Gap
0+ 0 nan nan 941.7205 0.0000 nan 100.00%
0+ 0 nan nan 872.5219 0.0000 nan 100.00%
0 0 601.4591 6 872.5219 601.4591 44 31.07%
0+ 0 nan nan 737.8283 601.4591 nan 18.48%
0 0 603.7638 7 737.8283 Cuts:4 52 18.17%
0+ 0 nan nan 685.4619 603.7638 nan 11.92%
0 0 611.7691 8 685.4619 Cuts:10 63 10.75%
0+ 0 nan nan 652.5589 611.7691 nan 6.25%
0 0 620.4593 8 652.5589 Cuts:11 78 4.92%
0 0 625.0970 8 652.5589 Cuts:10 90 4.21%
0 0 631.3239 8 652.5589 Cuts:8 103 3.25%
0 0 632.4090 8 652.5589 Cuts:9 111 3.09%
0 0 634.7454 8 652.5589 LiftProj:4 123 2.73%
0 0 635.4378 8 652.5589 LiftProj:2 127 2.62%
0 0 635.7020 8 652.5589 LiftProj:3 131 2.58%
0 0 636.1039 8 652.5589 LiftProj:2 138 2.52%
0 0 636.1228 8 652.5589 LiftProj:3 140 2.52%
0 0 636.5768 8 652.5589 LiftProj:3 145 2.45%
0 0 636.6391 8 652.5589 LiftProj:2 147 2.44%
0 0 cutoff 652.5589 636.6391 147 2.44% 0
CPXPARAM_MIP_Cuts_Disjunctive-LiftProj:Disjunctive 12
CPXPARAM_MIP_Cuts_Disjunctive-LiftProj:LiftProj 2
29
Node Left Objective IInf Best_Integer Best_Bound ItCnt Gap
0+ 0 nan nan 941.7205 0.0000 nan 100.00%
0 0 integral 0 596.9704 596.9704 48 0.00%
CPXPARAM_MIP_Cuts_Disjunctive-LiftProj:Disjunctive 0
CPXPARAM_MIP_Cuts_Disjunctive-LiftProj:LiftProj 0
30
Node Left Objective IInf Best_Integer Best_Bound ItCnt Gap
0+ 0 nan nan 941.7205 0.0000 nan 100.00%
0+ 0 nan nan 877.2624 0.0000 nan 100.00%
0 0 601.4591 6 877.2624 601.4591 46 31.44%
0+ 0 nan nan 696.2579 601.4591 nan 13.62%
0 0 603.7062 8 696.2579 Disjcuts:4 55 13.29%
0 0 615.1183 7 696.2579 Cuts:13 73 11.65%
0+ 0 nan nan 652.5589 615.1183 nan 5.74%
0 0 621.4358 6 652.5589 Cuts:11 84 4.77%
0 0 623.7609 7 652.5589 Cuts:7 92 4.41%
0 0 634.8753 7 652.5589 Cuts:13 105 2.71%
0 0 635.6250 7 652.5589 LiftProj:4 110 2.60%
0 0 636.4578 9 652.5589 LiftProj:4 118 2.47%
0 0 637.1849 7 652.5589 LiftProj:4 124 2.36%
0 0 638.8380 7 652.5589 LiftProj:3 132 2.10%
0 0 640.8189 6 652.5589 LiftProj:2 139 1.80%
0 0 643.6898 5 652.5589 LiftProj:1 155 1.36%
0 0 644.5165 5 652.5589 LiftProj:4 160 1.23%
0 0 644.7784 5 652.5589 LiftProj:2 162 1.19%
0 0 647.8924 5 652.5589 LiftProj:4 173 0.72%
0 0 cutoff 652.5589 647.8924 173 0.72% 0
CPXPARAM_MIP_Cuts_Disjunctive-LiftProj:Disjunctive 11
CPXPARAM_MIP_Cuts_Disjunctive-LiftProj:LiftProj 0
31
Node Left Objective IInf Best_Integer Best_Bound ItCnt Gap
0+ 0 nan nan 941.7205 0.0000 nan 100.00%
0 0 integral 0 601.4591 601.4591 41 0.00%
CPXPARAM_MIP_Cuts_Disjunctive-LiftProj:Disjunctive 0
CPXPARAM_MIP_Cuts_Disjunctive-LiftProj:LiftProj 0
32
Node Left Objective IInf Best_Integer Best_Bound ItCnt Gap
0+ 0 nan nan 671.2898 0.0000 nan 100.00%
0+ 0 nan nan 538.6067 0.0000 nan 100.00%
0 0 285.1772 7 538.6067 285.1772 48 47.05%
0+ 0 nan nan 527.4518 285.1772 nan 45.93%
0 0 296.8300 9 527.4518 Cuts:7 62 43.72%
0+ 0 nan nan 398.4261 296.8300 nan 25.50%
0 0 310.9266 8 398.4261 Cuts:11 76 21.96%
0+ 0 nan nan 392.1998 310.9266 nan 20.72%
0 0 323.4386 9 392.1998 Cuts:7 90 17.53%
0 0 330.2956 9 392.1998 Cuts:7 105 15.78%
0 0 338.2038 8 392.1998 Cuts:8 122 13.77%
0 0 339.4390 8 392.1998 Cuts:4 133 13.45%
0 0 341.7344 8 392.1998 LiftProj:3 148 12.87%
0 0 342.3710 8 392.1998 Cuts:8 162 12.70%
0 0 342.7176 9 392.1998 Cuts:7 168 12.62%
0 0 343.0341 8 392.1998 LiftProj:4 174 12.54%
0 0 343.1979 9 392.1998 LiftProj:4 180 12.49%
0 0 343.7971 8 392.1998 LiftProj:6 190 12.34%
0 0 343.9087 7 392.1998 Cuts:7 197 12.31%
0 0 344.0828 8 392.1998 LiftProj:3 202 12.27%
0 0 344.6934 9 392.1998 LiftProj:4 211 12.11%
0 0 345.0549 9 392.1998 LiftProj:7 217 12.02%
0 0 345.7699 9 392.1998 LiftProj:5 223 11.84%
0 0 346.3714 8 392.1998 LiftProj:4 229 11.68%
0 0 347.0679 9 392.1998 LiftProj:4 238 11.51%
0 0 347.4267 9 392.1998 LiftProj:5 247 11.42%
0 0 347.6281 9 392.1998 LiftProj:4 253 11.36%
0 0 347.7029 8 392.1998 LiftProj:3 259 11.35%
0 0 347.7657 9 392.1998 LiftProj:3 263 11.33%
0 2 347.8333 7 392.1998 348.3522 263 11.18%
CPXPARAM_MIP_Cuts_Disjunctive-LiftProj:Disjunctive 15
CPXPARAM_MIP_Cuts_Disjunctive-LiftProj:LiftProj 2
33
Node Left Objective IInf Best_Integer Best_Bound ItCnt Gap
0+ 0 nan nan 671.2898 0.0000 nan 100.00%
0 0 304.9439 1 671.2898 304.9439 48 54.57%
0+ 0 nan nan 305.0518 304.9439 nan 0.04%
0 0 integral 0 304.9870 304.9870 50 0.00%
CPXPARAM_MIP_Cuts_Disjunctive-LiftProj:Disjunctive 0
CPXPARAM_MIP_Cuts_Disjunctive-LiftProj:LiftProj 0
34
Node Left Objective IInf Best_Integer Best_Bound ItCnt Gap
0+ 0 nan nan 671.2898 0.0000 nan 100.00%
0+ 0 nan nan 548.6165 0.0000 nan 100.00%
0 0 304.9439 6 548.6165 304.9439 32 44.42%
0+ 0 nan nan 522.3973 304.9439 nan 41.63%
0 0 307.5007 8 522.3973 Cuts:7 43 41.14%
0+ 0 nan nan 462.2964 307.5007 nan 33.48%
0 0 317.6423 7 462.2964 Cuts:10 56 31.29%
0+ 0 nan nan 398.4261 317.6423 nan 20.28%
0 0 326.4461 7 398.4261 Cuts:12 71 18.07%
0+ 0 nan nan 392.1998 326.4461 nan 16.77%
0 0 332.8538 7 392.1998 Cuts:12 81 15.13%
0 0 338.7795 7 392.1998 Cuts:13 91 13.62%
0 0 340.6833 7 392.1998 Cuts:5 98 13.14%
0 0 343.3103 8 392.1998 LiftProj:3 106 12.47%
0 0 344.7980 8 392.1998 LiftProj:5 117 12.09%
0 0 345.3041 8 392.1998 LiftProj:3 119 11.96%
0 0 348.0808 7 392.1998 Cuts:5 125 11.25%
0 0 348.8428 9 392.1998 LiftProj:5 129 11.05%
0 0 349.2575 8 392.1998 LiftProj:4 139 10.95%
0 0 349.4509 9 392.1998 LiftProj:4 142 10.90%
0 0 349.8648 9 392.1998 LiftProj:3 149 10.79%
0 0 350.2095 7 392.1998 LiftProj:5 157 10.71%
0 0 350.6921 9 392.1998 LiftProj:4 166 10.58%
0 0 351.0342 8 392.1998 LiftProj:5 175 10.50%
0 0 351.2473 9 392.1998 LiftProj:3 181 10.44%
0 0 352.4469 9 392.1998 LiftProj:4 189 10.14%
0 0 352.9258 9 392.1998 LiftProj:5 196 10.01%
0 0 353.6708 9 392.1998 LiftProj:8 206 9.82%
0 0 354.1089 8 392.1998 LiftProj:13 214 9.71%
0 0 354.2008 9 392.1998 LiftProj:5 219 9.69%
0 0 354.3648 9 392.1998 LiftProj:5 225 9.65%
0 0 354.4801 9 392.1998 LiftProj:4 229 9.62%
0 0 355.3161 8 392.1998 LiftProj:4 237 9.40%
0 0 355.9238 7 392.1998 LiftProj:4 243 9.25%
0 0 356.0167 8 392.1998 LiftProj:4 246 9.23%
0 0 356.4353 9 392.1998 LiftProj:5 252 9.12%
0 0 356.9488 9 392.1998 LiftProj:5 261 8.99%
0 0 356.9725 8 392.1998 LiftProj:5 264 8.98%
0 2 357.8415 6 392.1998 358.9575 264 8.48%
CPXPARAM_MIP_Cuts_Disjunctive-LiftProj:Disjunctive 19
CPXPARAM_MIP_Cuts_Disjunctive-LiftProj:LiftProj 1
35
Node Left Objective IInf Best_Integer Best_Bound ItCnt Gap
0+ 0 nan nan 671.2898 0.0000 nan 100.00%
0 0 integral 0 363.5184 363.5184 29 0.00%
CPXPARAM_MIP_Cuts_Disjunctive-LiftProj:Disjunctive 0
CPXPARAM_MIP_Cuts_Disjunctive-LiftProj:LiftProj 0
36
Node Left Objective IInf Best_Integer Best_Bound ItCnt Gap
0+ 0 nan nan 758.0328 0.0000 nan 100.00%
0+ 0 nan nan 643.3001 0.0000 nan 100.00%
0 0 431.0120 7 643.3001 431.0120 48 33.00%
0+ 0 nan nan 591.9356 431.0120 nan 27.19%
0 0 433.9774 9 591.9356 Disjcuts:6 58 26.69%
0+ 0 nan nan 586.8010 433.9774 nan 26.04%
0 0 440.2968 9 586.8010 Cuts:10 73 24.97%
0+ 0 nan nan 497.5652 440.2968 nan 11.51%
0 0 442.9258 9 497.5652 Cuts:9 84 10.98%
0 0 447.5878 9 497.5652 Cuts:11 92 10.04%
0 0 450.1330 9 497.5652 Cuts:13 107 9.53%
0 0 451.2573 9 497.5652 Cuts:7 119 9.31%
0 0 451.9291 9 497.5652 LiftProj:7 126 9.17%
0 0 452.0860 9 497.5652 LiftProj:6 129 9.14%
0 0 452.4067 9 497.5652 LiftProj:7 139 9.08%
0 0 452.6443 9 497.5652 LiftProj:5 144 9.03%
0 0 454.2491 9 497.5652 LiftProj:5 151 8.71%
0 0 454.6513 9 497.5652 Cuts:6 153 8.62%
0 0 454.9546 9 497.5652 LiftProj:5 160 8.56%
0 0 455.0650 9 497.5652 LiftProj:4 163 8.54%
0 0 455.1365 9 497.5652 LiftProj:4 166 8.53%
0 0 455.1973 9 497.5652 LiftProj:5 168 8.52%
0 0 455.1986 9 497.5652 LiftProj:3 169 8.51%
0 2 455.6048 8 497.5652 455.6432 169 8.43%
CPXPARAM_MIP_Cuts_Disjunctive-LiftProj:Disjunctive 14
CPXPARAM_MIP_Cuts_Disjunctive-LiftProj:LiftProj 4
37
Node Left Objective IInf Best_Integer Best_Bound ItCnt Gap
0+ 0 nan nan 758.0328 0.0000 nan 100.00%
0 0 integral 0 431.0120 431.0120 52 0.00%
CPXPARAM_MIP_Cuts_Disjunctive-LiftProj:Disjunctive 0
CPXPARAM_MIP_Cuts_Disjunctive-LiftProj:LiftProj 0
38
Node Left Objective IInf Best_Integer Best_Bound ItCnt Gap
0+ 0 nan nan 758.0328 0.0000 nan 100.00%
0+ 0 nan nan 644.4799 0.0000 nan 100.00%
0 0 431.2487 6 644.4799 431.2487 42 33.09%
0+ 0 nan nan 591.9356 431.2487 nan 27.15%
0 0 434.3898 8 591.9356 Cuts:5 52 26.62%
0 0 440.7285 9 591.9356 Cuts:12 63 25.54%
0+ 0 nan nan 534.0033 440.7285 nan 17.47%
0 0 447.9657 8 534.0033 Cuts:11 75 16.11%
0+ 0 nan nan 504.0961 447.9657 nan 11.13%
0 0 449.3567 9 504.0961 Cuts:11 87 10.86%
0 0 451.4159 8 504.0961 Cuts:14 106 10.45%
0 0 453.0469 9 504.0961 Cuts:6 117 10.13%
0 0 453.9748 9 504.0961 LiftProj:5 127 9.94%
0 0 455.7799 8 504.0961 Cuts:11 137 9.58%
0 0 457.8272 8 504.0961 LiftProj:5 147 9.18%
0+ 0 nan nan 497.5652 457.8272 nan 7.99%
0 0 458.4652 8 497.5652 LiftProj:9 158 7.86%
0 0 459.0664 8 497.5652 LiftProj:5 165 7.74%
0 0 459.3447 9 497.5652 LiftProj:7 171 7.68%
0 0 459.5929 9 497.5652 Cuts:6 178 7.63%
0 0 459.7776 9 497.5652 Cuts:8 186 7.59%
0 0 460.7623 8 497.5652 LiftProj:7 198 7.40%
0 0 461.2590 8 497.5652 LiftProj:7 207 7.30%
0 0 463.1425 8 497.5652 Cuts:8 216 6.92%
0 0 465.2654 8 497.5652 LiftProj:9 226 6.49%
0 0 466.2342 8 497.5652 LiftProj:7 233 6.30%
0 0 466.6307 8 497.5652 LiftProj:5 239 6.22%
0 0 467.0464 8 497.5652 LiftProj:4 242 6.13%
0 0 468.5250 7 497.5652 LiftProj:7 253 5.84%
0 0 468.5829 8 497.5652 LiftProj:5 255 5.82%
0 0 468.9013 9 497.5652 LiftProj:5 262 5.76%
0 0 469.1935 9 497.5652 LiftProj:6 268 5.70%
0 0 469.4713 9 497.5652 LiftProj:7 273 5.65%
0 0 470.4262 9 497.5652 LiftProj:5 281 5.45%
0 0 470.8701 8 497.5652 LiftProj:11 290 5.37%
0 0 471.2848 7 497.5652 LiftProj:7 296 5.28%
0 0 471.3087 8 497.5652 LiftProj:5 300 5.28%
0 2 471.6692 7 497.5652 471.8106 300 5.18%
CPXPARAM_MIP_Cuts_Disjunctive-LiftProj:Disjunctive 20
CPXPARAM_MIP_Cuts_Disjunctive-LiftProj:LiftProj 0
39
Node Left Objective IInf Best_Integer Best_Bound ItCnt Gap
0+ 0 nan nan 758.0328 0.0000 nan 100.00%
0+ 0 nan nan 451.8439 0.0000 nan 100.00%
0 0 cutoff 451.8439 451.8439 34 0.00%
0 0 cutoff 451.8439 451.8439 34 0.00% 0
CPXPARAM_MIP_Cuts_Disjunctive-LiftProj:Disjunctive 0
CPXPARAM_MIP_Cuts_Disjunctive-LiftProj:LiftProj 0
